(set-info :smt-lib-version 2.6)
(set-logic QF_NIA)
(set-info :source |
Generated by: Cristina Borralleras, Daniel Larraz, Albert Oliveras, Enric Rodriguez-Carbonell, Albert Rubio
Generated on: 2017-04-27
Generator: VeryMax
Application: Termination proving
Target solver: barcelogic
|)
(set-info :license "https://creativecommons.org/licenses/by/4.0/")
(set-info :category "industrial")
(set-info :status sat)
(declare-fun Nl2main_c1 () Int)
(declare-fun Nl2main_x1 () Int)
(declare-fun Nl2main_c2 () Int)
(declare-fun Nl2main_x2 () Int)
(declare-fun lam0n0 () Int)
(declare-fun lam0n1 () Int)
(declare-fun lam0n2 () Int)
(declare-fun lam0n3 () Int)
(declare-fun lam0n4 () Int)
(declare-fun lam0n5 () Int)
(declare-fun Nl2CT1 () Int)
(declare-fun Nl2CT2 () Int)
(declare-fun lam1n0 () Int)
(declare-fun lam1n1 () Int)
(declare-fun lam1n2 () Int)
(declare-fun lam1n3 () Int)
(declare-fun lam1n4 () Int)
(declare-fun lam1n5 () Int)
(declare-fun lam2n0 () Int)
(declare-fun lam2n1 () Int)
(declare-fun lam2n2 () Int)
(declare-fun lam2n3 () Int)
(declare-fun lam2n4 () Int)
(declare-fun lam2n5 () Int)
(declare-fun lam3n0 () Int)
(declare-fun lam3n1 () Int)
(declare-fun lam3n2 () Int)
(declare-fun lam3n3 () Int)
(declare-fun lam3n4 () Int)
(declare-fun lam4n0 () Int)
(declare-fun lam4n1 () Int)
(declare-fun lam4n2 () Int)
(declare-fun lam4n3 () Int)
(declare-fun lam4n4 () Int)
(declare-fun lam5n0 () Int)
(declare-fun lam5n1 () Int)
(declare-fun lam5n2 () Int)
(declare-fun lam5n3 () Int)
(declare-fun lam5n4 () Int)
(declare-fun lam6n0 () Int)
(declare-fun lam6n1 () Int)
(declare-fun lam6n2 () Int)
(declare-fun lam6n3 () Int)
(declare-fun lam6n4 () Int)
(declare-fun lam7n0 () Int)
(declare-fun lam7n1 () Int)
(declare-fun lam7n2 () Int)
(declare-fun lam7n3 () Int)
(declare-fun lam7n4 () Int)
(declare-fun lam8n0 () Int)
(declare-fun lam8n1 () Int)
(declare-fun lam8n2 () Int)
(declare-fun lam8n3 () Int)
(declare-fun lam8n4 () Int)
(declare-fun lam9n0 () Int)
(declare-fun lam9n1 () Int)
(declare-fun lam9n2 () Int)
(declare-fun lam10n0 () Int)
(declare-fun lam10n1 () Int)
(declare-fun lam10n2 () Int)
(declare-fun main_x () Int)
(declare-fun main_c () Int)
(declare-fun undef2 () Int)
(declare-fun lam14n0 () Int)
(declare-fun lam14n1 () Int)
(declare-fun lam14n2 () Int)
(declare-fun lam14n3 () Int)
(declare-fun lam14n4 () Int)
(declare-fun RFN1_CT () Int)
(declare-fun RFN1_main_c () Int)
(declare-fun RFN1_main_x () Int)
(declare-fun lam12n0 () Int)
(declare-fun lam12n1 () Int)
(declare-fun lam12n2 () Int)
(declare-fun lam12n3 () Int)
(declare-fun lam12n4 () Int)
(declare-fun lam13n0 () Int)
(declare-fun lam13n1 () Int)
(declare-fun lam13n2 () Int)
(declare-fun lam13n3 () Int)
(declare-fun lam13n4 () Int)
(declare-fun lam11n0 () Int)
(declare-fun lam11n1 () Int)
(declare-fun lam11n2 () Int)
(declare-fun lam11n3 () Int)
(declare-fun lam11n4 () Int)
(assert ( and ( <= ( - 1 ) Nl2main_c1 ) ( <= Nl2main_c1 1 ) ( <= ( - 1 ) Nl2main_x1 ) ( <= Nl2main_x1 1 ) ( <= ( - 1 ) Nl2main_c2 ) ( <= Nl2main_c2 1 ) ( <= ( - 1 ) Nl2main_x2 ) ( <= Nl2main_x2 1 ) ))
(assert ( or ( and ( >= lam0n0 0 ) ( >= lam0n1 0 ) ( >= lam0n2 0 ) ( >= lam0n3 0 ) ( >= lam0n4 0 ) ( >= lam0n5 0 ) ( > ( + ( * ( - 1 ) lam0n1 ) ( * 2 lam0n2 ) ( * ( - 99 ) lam0n3 ) ( * Nl2CT1 lam0n4 ) ( * Nl2CT2 lam0n5 ) ( - 1 ) ) 0 ) ( = ( + ( * ( - 1 ) lam0n0 ) ( * 1 lam0n1 ) ( * Nl2main_c1 lam0n4 ) ( * Nl2main_c2 lam0n5 ) ) 0 ) ( = ( + ( * ( - 1 ) lam0n2 ) ( * 1 lam0n3 ) ( * Nl2main_x1 lam0n4 ) ( * Nl2main_x2 lam0n5 ) ) 0 ) ) ( and ( >= lam1n0 0 ) ( >= lam1n1 0 ) ( >= lam1n2 0 ) ( >= lam1n3 0 ) ( >= lam1n4 0 ) ( >= lam1n5 0 ) ( > ( + ( * ( - 1 ) lam1n1 ) ( * 2 lam1n2 ) ( * ( - 99 ) lam1n3 ) ( * Nl2CT1 lam1n4 ) ( * Nl2CT2 lam1n5 ) ( - 1 ( + ( + Nl2CT1 ( * Nl2main_c1 1 ) ) ( * Nl2main_x1 0 ) ) ) ) 0 ) ( = ( + ( * ( - 1 ) lam1n0 ) ( * 1 lam1n1 ) ( * Nl2main_c1 lam1n4 ) ( * Nl2main_c2 lam1n5 ) ( - ( + 0 ( * Nl2main_c1 1 ) ) ) ) 0 ) ( = ( + ( * ( - 1 ) lam1n2 ) ( * 1 lam1n3 ) ( * Nl2main_x1 lam1n4 ) ( * Nl2main_x2 lam1n5 ) ) 0 ) ( = ( - ( + 0 ( * Nl2main_x1 1 ) ) ) 0 ) ) ))
(assert ( or ( and ( >= lam0n0 0 ) ( >= lam0n1 0 ) ( >= lam0n2 0 ) ( >= lam0n3 0 ) ( >= lam0n4 0 ) ( >= lam0n5 0 ) ( > ( + ( * ( - 1 ) lam0n1 ) ( * 2 lam0n2 ) ( * ( - 99 ) lam0n3 ) ( * Nl2CT1 lam0n4 ) ( * Nl2CT2 lam0n5 ) ( - 1 ) ) 0 ) ( = ( + ( * ( - 1 ) lam0n0 ) ( * 1 lam0n1 ) ( * Nl2main_c1 lam0n4 ) ( * Nl2main_c2 lam0n5 ) ) 0 ) ( = ( + ( * ( - 1 ) lam0n2 ) ( * 1 lam0n3 ) ( * Nl2main_x1 lam0n4 ) ( * Nl2main_x2 lam0n5 ) ) 0 ) ) ( and ( >= lam2n0 0 ) ( >= lam2n1 0 ) ( >= lam2n2 0 ) ( >= lam2n3 0 ) ( >= lam2n4 0 ) ( >= lam2n5 0 ) ( > ( + ( * ( - 1 ) lam2n1 ) ( * 2 lam2n2 ) ( * ( - 99 ) lam2n3 ) ( * Nl2CT1 lam2n4 ) ( * Nl2CT2 lam2n5 ) ( - 1 ( + ( + Nl2CT2 ( * Nl2main_c2 1 ) ) ( * Nl2main_x2 0 ) ) ) ) 0 ) ( = ( + ( * ( - 1 ) lam2n0 ) ( * 1 lam2n1 ) ( * Nl2main_c1 lam2n4 ) ( * Nl2main_c2 lam2n5 ) ( - ( + 0 ( * Nl2main_c2 1 ) ) ) ) 0 ) ( = ( + ( * ( - 1 ) lam2n2 ) ( * 1 lam2n3 ) ( * Nl2main_x1 lam2n4 ) ( * Nl2main_x2 lam2n5 ) ) 0 ) ( = ( - ( + 0 ( * Nl2main_x2 1 ) ) ) 0 ) ) ))
(assert ( or ( and ( >= lam3n0 0 ) ( >= lam3n1 0 ) ( >= lam3n2 0 ) ( >= lam3n3 0 ) ( >= lam3n4 0 ) ( > ( + ( * 2 lam3n0 ) ( * 2 lam3n1 ) ( * ( - 99 ) lam3n2 ) ( * Nl2CT1 lam3n3 ) ( * Nl2CT2 lam3n4 ) ( - 1 ) ) 0 ) ( = ( + ( * ( - 1 ) lam3n0 ) ( * Nl2main_c1 lam3n3 ) ( * Nl2main_c2 lam3n4 ) ) 0 ) ( = ( + ( * ( - 1 ) lam3n1 ) ( * 1 lam3n2 ) ( * Nl2main_x1 lam3n3 ) ( * Nl2main_x2 lam3n4 ) ) 0 ) ) ( and ( >= lam4n0 0 ) ( >= lam4n1 0 ) ( >= lam4n2 0 ) ( >= lam4n3 0 ) ( >= lam4n4 0 ) ( > ( + ( * 2 lam4n0 ) ( * 2 lam4n1 ) ( * ( - 99 ) lam4n2 ) ( * Nl2CT1 lam4n3 ) ( * Nl2CT2 lam4n4 ) ( - 1 ( + ( + Nl2CT1 ( * Nl2main_c1 1 ) ) ( * Nl2main_x1 0 ) ) ) ) 0 ) ( = ( + ( * ( - 1 ) lam4n0 ) ( * Nl2main_c1 lam4n3 ) ( * Nl2main_c2 lam4n4 ) ( - ( + 0 ( * Nl2main_c1 1 ) ) ) ) 0 ) ( = ( + ( * ( - 1 ) lam4n1 ) ( * 1 lam4n2 ) ( * Nl2main_x1 lam4n3 ) ( * Nl2main_x2 lam4n4 ) ) 0 ) ( = ( - ( + 0 ( * Nl2main_x1 1 ) ) ) 0 ) ) ))
(assert ( or ( and ( >= lam3n0 0 ) ( >= lam3n1 0 ) ( >= lam3n2 0 ) ( >= lam3n3 0 ) ( >= lam3n4 0 ) ( > ( + ( * 2 lam3n0 ) ( * 2 lam3n1 ) ( * ( - 99 ) lam3n2 ) ( * Nl2CT1 lam3n3 ) ( * Nl2CT2 lam3n4 ) ( - 1 ) ) 0 ) ( = ( + ( * ( - 1 ) lam3n0 ) ( * Nl2main_c1 lam3n3 ) ( * Nl2main_c2 lam3n4 ) ) 0 ) ( = ( + ( * ( - 1 ) lam3n1 ) ( * 1 lam3n2 ) ( * Nl2main_x1 lam3n3 ) ( * Nl2main_x2 lam3n4 ) ) 0 ) ) ( and ( >= lam5n0 0 ) ( >= lam5n1 0 ) ( >= lam5n2 0 ) ( >= lam5n3 0 ) ( >= lam5n4 0 ) ( > ( + ( * 2 lam5n0 ) ( * 2 lam5n1 ) ( * ( - 99 ) lam5n2 ) ( * Nl2CT1 lam5n3 ) ( * Nl2CT2 lam5n4 ) ( - 1 ( + ( + Nl2CT2 ( * Nl2main_c2 1 ) ) ( * Nl2main_x2 0 ) ) ) ) 0 ) ( = ( + ( * ( - 1 ) lam5n0 ) ( * Nl2main_c1 lam5n3 ) ( * Nl2main_c2 lam5n4 ) ( - ( + 0 ( * Nl2main_c2 1 ) ) ) ) 0 ) ( = ( + ( * ( - 1 ) lam5n1 ) ( * 1 lam5n2 ) ( * Nl2main_x1 lam5n3 ) ( * Nl2main_x2 lam5n4 ) ) 0 ) ( = ( - ( + 0 ( * Nl2main_x2 1 ) ) ) 0 ) ) ))
(assert ( or ( and ( >= lam6n0 0 ) ( >= lam6n1 0 ) ( >= lam6n2 0 ) ( >= lam6n3 0 ) ( >= lam6n4 0 ) ( > ( + ( * 1 lam6n0 ) ( * 2 lam6n1 ) ( * ( - 99 ) lam6n2 ) ( * Nl2CT1 lam6n3 ) ( * Nl2CT2 lam6n4 ) ( - 1 ) ) 0 ) ( = ( + ( * 1 lam6n0 ) ( * Nl2main_c1 lam6n3 ) ( * Nl2main_c2 lam6n4 ) ) 0 ) ( = ( + ( * ( - 1 ) lam6n1 ) ( * 1 lam6n2 ) ( * Nl2main_x1 lam6n3 ) ( * Nl2main_x2 lam6n4 ) ) 0 ) ) ( and ( >= lam7n0 0 ) ( >= lam7n1 0 ) ( >= lam7n2 0 ) ( >= lam7n3 0 ) ( >= lam7n4 0 ) ( > ( + ( * 1 lam7n0 ) ( * 2 lam7n1 ) ( * ( - 99 ) lam7n2 ) ( * Nl2CT1 lam7n3 ) ( * Nl2CT2 lam7n4 ) ( - 1 ( + ( + Nl2CT1 ( * Nl2main_c1 1 ) ) ( * Nl2main_x1 0 ) ) ) ) 0 ) ( = ( + ( * 1 lam7n0 ) ( * Nl2main_c1 lam7n3 ) ( * Nl2main_c2 lam7n4 ) ( - ( + 0 ( * Nl2main_c1 1 ) ) ) ) 0 ) ( = ( + ( * ( - 1 ) lam7n1 ) ( * 1 lam7n2 ) ( * Nl2main_x1 lam7n3 ) ( * Nl2main_x2 lam7n4 ) ) 0 ) ( = ( - ( + 0 ( * Nl2main_x1 1 ) ) ) 0 ) ) ))
(assert ( or ( and ( >= lam6n0 0 ) ( >= lam6n1 0 ) ( >= lam6n2 0 ) ( >= lam6n3 0 ) ( >= lam6n4 0 ) ( > ( + ( * 1 lam6n0 ) ( * 2 lam6n1 ) ( * ( - 99 ) lam6n2 ) ( * Nl2CT1 lam6n3 ) ( * Nl2CT2 lam6n4 ) ( - 1 ) ) 0 ) ( = ( + ( * 1 lam6n0 ) ( * Nl2main_c1 lam6n3 ) ( * Nl2main_c2 lam6n4 ) ) 0 ) ( = ( + ( * ( - 1 ) lam6n1 ) ( * 1 lam6n2 ) ( * Nl2main_x1 lam6n3 ) ( * Nl2main_x2 lam6n4 ) ) 0 ) ) ( and ( >= lam8n0 0 ) ( >= lam8n1 0 ) ( >= lam8n2 0 ) ( >= lam8n3 0 ) ( >= lam8n4 0 ) ( > ( + ( * 1 lam8n0 ) ( * 2 lam8n1 ) ( * ( - 99 ) lam8n2 ) ( * Nl2CT1 lam8n3 ) ( * Nl2CT2 lam8n4 ) ( - 1 ( + ( + Nl2CT2 ( * Nl2main_c2 1 ) ) ( * Nl2main_x2 0 ) ) ) ) 0 ) ( = ( + ( * 1 lam8n0 ) ( * Nl2main_c1 lam8n3 ) ( * Nl2main_c2 lam8n4 ) ( - ( + 0 ( * Nl2main_c2 1 ) ) ) ) 0 ) ( = ( + ( * ( - 1 ) lam8n1 ) ( * 1 lam8n2 ) ( * Nl2main_x1 lam8n3 ) ( * Nl2main_x2 lam8n4 ) ) 0 ) ( = ( - ( + 0 ( * Nl2main_x2 1 ) ) ) 0 ) ) ))
(assert ( and ( not ( <= ( + ( - 1 ) main_x ) 0 ) ) ( = main_c 0 ) ( = ( + main_x ( * ( - 1 ) undef2 ) ) 0 ) ( <= ( + Nl2CT1 ( * ( + 0 Nl2main_c1 ) main_c ) ( * ( + 0 Nl2main_x1 ) main_x ) ) 0 ) ( <= ( + Nl2CT2 ( * ( + 0 Nl2main_c2 ) main_c ) ( * ( + 0 Nl2main_x2 ) main_x ) ) 0 ) ))
(assert ( or ( and ( and ( >= lam14n0 0 ) ( >= lam14n1 0 ) ( >= lam14n2 0 ) ( >= lam14n3 0 ) ( >= lam14n4 0 ) ( > ( + ( * 2 lam14n0 ) ( * ( - 99 ) lam14n1 ) ( * 50001 lam14n2 ) ( * Nl2CT1 lam14n3 ) ( * Nl2CT2 lam14n4 ) ( - 1 ( - ( + ( + RFN1_CT ( * RFN1_main_c 1 ) ) ( * RFN1_main_x 0 ) ) RFN1_CT ) ) ) 0 ) ( = ( + ( * ( - 1 ) lam14n2 ) ( * Nl2main_c1 lam14n3 ) ( * Nl2main_c2 lam14n4 ) ( - ( - ( + 0 ( * RFN1_main_c 1 ) ) RFN1_main_c ) ) ) 0 ) ( = ( + ( * ( - 1 ) lam14n0 ) ( * 1 lam14n1 ) ( * Nl2main_x1 lam14n3 ) ( * Nl2main_x2 lam14n4 ) ( - ( - RFN1_main_x ) ) ) 0 ) ( = ( - ( + 0 ( * RFN1_main_x 1 ) ) ) 0 ) ) ( and ( and ( >= lam12n0 0 ) ( >= lam12n1 0 ) ( >= lam12n2 0 ) ( >= lam12n3 0 ) ( >= lam12n4 0 ) ( > ( + ( * 2 lam12n0 ) ( * ( - 99 ) lam12n1 ) ( * 50001 lam12n2 ) ( * Nl2CT1 lam12n3 ) ( * Nl2CT2 lam12n4 ) ( - 1 ( - RFN1_CT ) ) ) 0 ) ( = ( + ( * ( - 1 ) lam12n2 ) ( * Nl2main_c1 lam12n3 ) ( * Nl2main_c2 lam12n4 ) ( - ( - RFN1_main_c ) ) ) 0 ) ( = ( + ( * ( - 1 ) lam12n0 ) ( * 1 lam12n1 ) ( * Nl2main_x1 lam12n3 ) ( * Nl2main_x2 lam12n4 ) ( - ( - RFN1_main_x ) ) ) 0 ) ) ( and ( >= lam13n0 0 ) ( >= lam13n1 0 ) ( >= lam13n2 0 ) ( >= lam13n3 0 ) ( >= lam13n4 0 ) ( > ( + ( * 2 lam13n0 ) ( * ( - 99 ) lam13n1 ) ( * 50001 lam13n2 ) ( * Nl2CT1 lam13n3 ) ( * Nl2CT2 lam13n4 ) ( - 1 ( + ( - ( + ( + RFN1_CT ( * RFN1_main_c 1 ) ) ( * RFN1_main_x 0 ) ) RFN1_CT ) 1 ) ) ) 0 ) ( = ( + ( * ( - 1 ) lam13n2 ) ( * Nl2main_c1 lam13n3 ) ( * Nl2main_c2 lam13n4 ) ( - ( - ( + 0 ( * RFN1_main_c 1 ) ) RFN1_main_c ) ) ) 0 ) ( = ( + ( * ( - 1 ) lam13n0 ) ( * 1 lam13n1 ) ( * Nl2main_x1 lam13n3 ) ( * Nl2main_x2 lam13n4 ) ( - ( - RFN1_main_x ) ) ) 0 ) ( = ( - ( + 0 ( * RFN1_main_x 1 ) ) ) 0 ) ) ) ) ( and ( >= lam11n0 0 ) ( >= lam11n1 0 ) ( >= lam11n2 0 ) ( >= lam11n3 0 ) ( >= lam11n4 0 ) ( > ( + ( * 2 lam11n0 ) ( * ( - 99 ) lam11n1 ) ( * 50001 lam11n2 ) ( * Nl2CT1 lam11n3 ) ( * Nl2CT2 lam11n4 ) ( - 1 ) ) 0 ) ( = ( + ( * ( - 1 ) lam11n2 ) ( * Nl2main_c1 lam11n3 ) ( * Nl2main_c2 lam11n4 ) ) 0 ) ( = ( + ( * ( - 1 ) lam11n0 ) ( * 1 lam11n1 ) ( * Nl2main_x1 lam11n3 ) ( * Nl2main_x2 lam11n4 ) ) 0 ) ) ))
(check-sat)
(exit)
